\ Equation counts
\     Total        E        G        L        N        X        C        B
\	459	459	0	0
\
\ Variable counts
\                  x        b        i      s1s      s2s       sc       si
\     Total     cont   binary  integer     sos1     sos2    scont     sint
\	50	50

\ Nonzero counts
\     Total    const       NL      DLL
\
\
Minimize
 obj: [ - 18.0 x_1 * x_2 - 4.5 x_1 * x_3 - 24.0 x_1 * x_6 + 4.0 x_1 * x_8 - 14.5 x_1 * x_9 - 12.5 x_1 * x_12 + 20.5 x_1 * x_13 + 0.5 x_1 * x_15 + 5.5 x_1 * x_21 + 10.0 x_1 * x_22 - 4.5 x_1 * x_24 + 10.0 x_1 * x_25 - 11.0 x_1 * x_26 + 13.5 x_1 * x_27 - 5.0 x_1 * x_29 + 16.0 x_1 * x_33 - 24.0 x_1 * x_34 + 15.0 x_1 * x_35 + 3.5 x_1 * x_36 - 15.0 x_1 * x_39 + 10.5 x_1 * x_40 - 2.5 x_1 * x_41 + 21.0 x_1 * x_44 + 3.5 x_1 * x_46 - 10.0 x_1 * x_47 - 23.0 x_1 * x_49 - 18.0 x_2 * x_1 + 12.0 x_2 * x_5 - 10.0 x_2 * x_7 - 20.0 x_2 * x_9 - 8.0 x_2 * x_10 - 13.5 x_2 * x_12 - 20.0 x_2 * x_13 + 15.5 x_2 * x_14 + 8.0 x_2 * x_15 + 16.5 x_2 * x_17 + 2.5 x_2 * x_19 - 8.5 x_2 * x_20 - 18.0 x_2 * x_21 + 0.5 x_2 * x_22 + 4.5 x_2 * x_24 - 5.0 x_2 * x_25 - 2.0 x_2 * x_26 + 19.5 x_2 * x_29 - 8.5 x_2 * x_30 + 3.0 x_2 * x_31 - 6.0 x_2 * x_34 + 14.5 x_2 * x_36 + 14.0 x_2 * x_39 - 18.0 x_2 * x_40 + 18.5 x_2 * x_42 + 15.0 x_2 * x_43 + 21.5 x_2 * x_46 - 3.0 x_2 * x_48 - 20.5 x_2 * x_50 - 4.5 x_3 * x_1 - 3.0 x_3 * x_9 + 21.0 x_3 * x_11 - 11.0 x_3 * x_12 + 15.0 x_3 * x_13 + 22.5 x_3 * x_15 + 20.5 x_3 * x_16 - 5.0 x_3 * x_17 + 18.0 x_3 * x_21 + 21.5 x_3 * x_24 - 15.0 x_3 * x_25 + 1.0 x_3 * x_27 - 6.5 x_3 * x_28 + 2.0 x_3 * x_29 + 8.0 x_3 * x_31 - 19.5 x_3 * x_36 - 5.5 x_3 * x_41 - 16.5 x_3 * x_42 + 23.0 x_3 * x_43 + 14.5 x_3 * x_44 + 24.0 x_3 * x_45 - 7.5 x_3 * x_46 - 9.5 x_3 * x_48 + 14.0 x_3 * x_49 + 13.0 x_3 * x_50 - 21.5 x_4 * x_4 + 5.5 x_4 * x_5 + 24.5 x_4 * x_6 - 18.5 x_4 * x_7 - 24.0 x_4 * x_9 - 14.5 x_4 * x_13 + 2.0 x_4 * x_14 - 1.5 x_4 * x_16 - 17.0 x_4 * x_17 + 18.0 x_4 * x_21 + 10.0 x_4 * x_22 + 10.5 x_4 * x_23 + 17.5 x_4 * x_25 - 15.0 x_4 * x_27 + 3.5 x_4 * x_28 + 14.5 x_4 * x_29 + 12.0 x_4 * x_30 - 15.5 x_4 * x_31 + 22.0 x_4 * x_34 - 19.5 x_4 * x_36 + 19.0 x_4 * x_39 + 12.0 x_4 * x_40 - 18.5 x_4 * x_47 - 4.5 x_4 * x_49 + 12.0 x_5 * x_2 + 5.5 x_5 * x_4 + 4.5 x_5 * x_6 - 8.5 x_5 * x_7 + 15.5 x_5 * x_10 + 17.5 x_5 * x_11 + 2.5 x_5 * x_12 - 23.5 x_5 * x_13 - 3.0 x_5 * x_16 - 9.0 x_5 * x_17 - 17.5 x_5 * x_20 + 3.0 x_5 * x_28 - 9.5 x_5 * x_31 - 14.5 x_5 * x_32 + 24.5 x_5 * x_34 + 1.0 x_5 * x_35 - 1.0 x_5 * x_36 - 14.0 x_5 * x_38 + 2.0 x_5 * x_39 - 10.5 x_5 * x_40 - 3.0 x_5 * x_41 - 14.5 x_5 * x_42 + 1.0 x_5 * x_43 - 6.5 x_5 * x_46 - 9.0 x_5 * x_47 + 9.5 x_5 * x_48 - 24.0 x_6 * x_1 + 24.5 x_6 * x_4 + 4.5 x_6 * x_5 - 19.0 x_6 * x_6 + 22.5 x_6 * x_8 - 24.5 x_6 * x_9 + 20.5 x_6 * x_10 - 8.5 x_6 * x_11 + 16.5 x_6 * x_12 - 13.5 x_6 * x_14 - 0.5 x_6 * x_15 + 15.0 x_6 * x_18 - 21.5 x_6 * x_22 + 17.5 x_6 * x_23 + 1.5 x_6 * x_24 + 22.5 x_6 * x_25 - 19.5 x_6 * x_26 - 22.5 x_6 * x_27 + 4.0 x_6 * x_29 - 10.0 x_6 * x_33 - 21.5 x_6 * x_34 - 9.0 x_6 * x_35 + 2.0 x_6 * x_39 + 20.5 x_6 * x_42 - 12.5 x_6 * x_43 - 1.0 x_6 * x_46 + 11.5 x_6 * x_47 - 22.0 x_6 * x_48 + 22.0 x_6 * x_49 - 10.0 x_7 * x_2 - 18.5 x_7 * x_4 - 8.5 x_7 * x_5 - 10.0 x_7 * x_9 - 10.0 x_7 * x_12 - 21.0 x_7 * x_14 + 4.0 x_7 * x_15 + 13.0 x_7 * x_16 + 11.0 x_7 * x_19 - 22.0 x_7 * x_20 + 17.5 x_7 * x_21 - 14.5 x_7 * x_23 - 18.0 x_7 * x_25 - 5.0 x_7 * x_26 + 15.5 x_7 * x_27 - 5.5 x_7 * x_28 - 15.0 x_7 * x_29 - 10.5 x_7 * x_31 + 17.5 x_7 * x_33 - 20.0 x_7 * x_34 - 11.0 x_7 * x_36 - 13.5 x_7 * x_37 + 4.0 x_7 * x_41 - 15.5 x_7 * x_42 - 15.5 x_7 * x_43 - 6.5 x_7 * x_45 + 7.0 x_7 * x_49 - 16.5 x_7 * x_50 + 4.0 x_8 * x_1 + 22.5 x_8 * x_6 - 10.5 x_8 * x_9 - 23.0 x_8 * x_12 + 8.5 x_8 * x_13 - 13.5 x_8 * x_14 + 15.5 x_8 * x_15 + 8.0 x_8 * x_19 - 14.0 x_8 * x_20 + 9.0 x_8 * x_23 - 17.0 x_8 * x_24 + 9.5 x_8 * x_25 + 10.0 x_8 * x_27 - 23.0 x_8 * x_30 - 14.5 x_8 * x_32 - 14.0 x_8 * x_33 + 4.0 x_8 * x_34 + 22.0 x_8 * x_36 - 0.5 x_8 * x_37 + 24.5 x_8 * x_38 - 6.5 x_8 * x_41 + 8.5 x_8 * x_42 - 7.0 x_8 * x_43 + 20.5 x_8 * x_49 - 7.0 x_8 * x_50 - 14.5 x_9 * x_1 - 20.0 x_9 * x_2 - 3.0 x_9 * x_3 - 24.0 x_9 * x_4 - 24.5 x_9 * x_6 - 10.0 x_9 * x_7 - 10.5 x_9 * x_8 - 1.5 x_9 * x_12 + 18.0 x_9 * x_13 - 17.0 x_9 * x_15 + 21.5 x_9 * x_16 + 5.5 x_9 * x_17 + 15.0 x_9 * x_18 - 6.0 x_9 * x_20 - 21.5 x_9 * x_21 - 13.5 x_9 * x_23 - 6.0 x_9 * x_24 - 1.0 x_9 * x_25 - 3.5 x_9 * x_26 + 4.0 x_9 * x_27 - 19.5 x_9 * x_28 + 21.0 x_9 * x_29 - 24.5 x_9 * x_39 + 2.5 x_9 * x_40 + 6.5 x_9 * x_43 - 9.0 x_9 * x_45 + 22.5 x_9 * x_49 - 19.0 x_9 * x_50 - 8.0 x_10 * x_2 + 15.5 x_10 * x_5 + 20.5 x_10 * x_6 - 23.5 x_10 * x_11 + 6.5 x_10 * x_12 + 4.0 x_10 * x_13 + 9.0 x_10 * x_15 + 22.0 x_10 * x_22 - 24.0 x_10 * x_23 - 4.5 x_10 * x_24 - 6.5 x_10 * x_25 + 14.0 x_10 * x_26 + 4.0 x_10 * x_28 + 19.5 x_10 * x_32 + 19.0 x_10 * x_33 - 20.0 x_10 * x_39 - 11.5 x_10 * x_40 + 19.0 x_10 * x_43 + 23.0 x_10 * x_46 + 8.5 x_10 * x_48 + 21.0 x_11 * x_3 + 17.5 x_11 * x_5 - 8.5 x_11 * x_6 - 23.5 x_11 * x_10 + 9.5 x_11 * x_11 + 13.0 x_11 * x_12 + 2.5 x_11 * x_14 - 5.0 x_11 * x_17 - 5.0 x_11 * x_20 + 14.5 x_11 * x_23 + 23.5 x_11 * x_24 + 9.0 x_11 * x_25 - 1.0 x_11 * x_26 + 7.0 x_11 * x_28 + 16.0 x_11 * x_31 + 16.5 x_11 * x_32 + 24.5 x_11 * x_34 + 1.5 x_11 * x_37 - 5.5 x_11 * x_38 - 22.0 x_11 * x_42 + 3.0 x_11 * x_44 - 1.0 x_11 * x_46 + 16.5 x_11 * x_50 - 12.5 x_12 * x_1 - 13.5 x_12 * x_2 - 11.0 x_12 * x_3 + 2.5 x_12 * x_5 + 16.5 x_12 * x_6 - 10.0 x_12 * x_7 - 23.0 x_12 * x_8 - 1.5 x_12 * x_9 + 6.5 x_12 * x_10 + 13.0 x_12 * x_11 + 24.5 x_12 * x_12 + 12.0 x_12 * x_15 + 12.0 x_12 * x_18 - 1.5 x_12 * x_23 - 24.0 x_12 * x_24 + 9.5 x_12 * x_26 + 13.0 x_12 * x_28 + 17.5 x_12 * x_30 + 5.5 x_12 * x_32 + 16.5 x_12 * x_33 + 21.5 x_12 * x_36 + 13.0 x_12 * x_39 - 2.0 x_12 * x_40 - 10.5 x_12 * x_41 - 17.5 x_12 * x_46 - 20.0 x_12 * x_47 - 18.0 x_12 * x_48 - 3.5 x_12 * x_49 + 20.5 x_13 * x_1 - 20.0 x_13 * x_2 + 15.0 x_13 * x_3 - 14.5 x_13 * x_4 - 23.5 x_13 * x_5 + 8.5 x_13 * x_8 + 18.0 x_13 * x_9 + 4.0 x_13 * x_10 + 19.5 x_13 * x_17 + 10.5 x_13 * x_18 + 15.5 x_13 * x_20 - 9.5 x_13 * x_24 - 20.5 x_13 * x_25 + 10.5 x_13 * x_26 + 11.5 x_13 * x_29 - 18.0 x_13 * x_30 + 21.0 x_13 * x_32 - 23.5 x_13 * x_33 - 12.5 x_13 * x_34 + 14.5 x_13 * x_35 + 7.5 x_13 * x_37 + 19.0 x_13 * x_38 - 24.0 x_13 * x_45 + 9.0 x_13 * x_49 + 16.0 x_13 * x_50 + 15.5 x_14 * x_2 + 2.0 x_14 * x_4 - 13.5 x_14 * x_6 - 21.0 x_14 * x_7 - 13.5 x_14 * x_8 + 2.5 x_14 * x_11 + 6.5 x_14 * x_15 + 20.0 x_14 * x_17 - 7.5 x_14 * x_25 + 4.0 x_14 * x_27 - 21.0 x_14 * x_29 - 15.5 x_14 * x_33 - 13.5 x_14 * x_34 - 22.0 x_14 * x_35 + 20.0 x_14 * x_36 - 6.0 x_14 * x_37 - 16.5 x_14 * x_42 + 0.5 x_14 * x_44 + 4.5 x_14 * x_47 - 22.5 x_14 * x_48 - 2.5 x_14 * x_49 + 0.5 x_15 * x_1 + 8.0 x_15 * x_2 + 22.5 x_15 * x_3 - 0.5 x_15 * x_6 + 4.0 x_15 * x_7 + 15.5 x_15 * x_8 - 17.0 x_15 * x_9 + 9.0 x_15 * x_10 + 12.0 x_15 * x_12 + 6.5 x_15 * x_14 + 18.5 x_15 * x_22 + 6.5 x_15 * x_23 + 9.0 x_15 * x_25 + 6.0 x_15 * x_26 + 5.5 x_15 * x_28 + 20.5 x_15 * x_31 + 20.5 x_15 * x_32 - 8.0 x_15 * x_33 - 7.0 x_15 * x_37 - 17.5 x_15 * x_40 - 20.5 x_15 * x_41 + 11.0 x_15 * x_42 + 4.5 x_15 * x_43 - 14.5 x_15 * x_44 + 6.5 x_15 * x_46 - 6.0 x_15 * x_47 - 8.5 x_15 * x_50 + 20.5 x_16 * x_3 - 1.5 x_16 * x_4 - 3.0 x_16 * x_5 + 13.0 x_16 * x_7 + 21.5 x_16 * x_9 + 17.0 x_16 * x_16 + 7.0 x_16 * x_22 + 13.0 x_16 * x_23 - 7.0 x_16 * x_24 - 20.0 x_16 * x_25 - 24.5 x_16 * x_28 - 9.0 x_16 * x_30 - 21.5 x_16 * x_33 + 5.0 x_16 * x_34 + 15.5 x_16 * x_35 - 18.0 x_16 * x_36 - 22.0 x_16 * x_37 + 13.0 x_16 * x_39 - 10.5 x_16 * x_40 + 15.0 x_16 * x_42 + 3.5 x_16 * x_45 + 2.5 x_16 * x_46 + 1.5 x_16 * x_47 + 22.0 x_16 * x_49 + 6.5 x_16 * x_50 + 16.5 x_17 * x_2 - 5.0 x_17 * x_3 - 17.0 x_17 * x_4 - 9.0 x_17 * x_5 + 5.5 x_17 * x_9 - 5.0 x_17 * x_11 + 19.5 x_17 * x_13 + 20.0 x_17 * x_14 - 6.0 x_17 * x_17 - 19.5 x_17 * x_20 + 10.5 x_17 * x_24 + 9.0 x_17 * x_25 - 20.0 x_17 * x_26 - 0.5 x_17 * x_27 - 0.5 x_17 * x_28 - 7.0 x_17 * x_29 - 7.0 x_17 * x_30 + 2.0 x_17 * x_31 - 5.0 x_17 * x_33 + 5.0 x_17 * x_35 - 1.5 x_17 * x_37 - 0.5 x_17 * x_39 - 10.0 x_17 * x_40 - 14.0 x_17 * x_41 - 6.5 x_17 * x_44 + 16.0 x_17 * x_45 + 19.5 x_17 * x_46 - 3.5 x_17 * x_48 + 15.0 x_18 * x_6 + 15.0 x_18 * x_9 + 12.0 x_18 * x_12 + 10.5 x_18 * x_13 + 17.0 x_18 * x_18 - 11.0 x_18 * x_19 + 8.0 x_18 * x_20 + 21.0 x_18 * x_22 - 5.5 x_18 * x_23 - 19.0 x_18 * x_24 + 15.5 x_18 * x_28 - 21.5 x_18 * x_29 - 4.5 x_18 * x_32 - 15.5 x_18 * x_34 - 18.0 x_18 * x_37 + 19.5 x_18 * x_38 + 1.0 x_18 * x_39 + 13.0 x_18 * x_44 - 24.5 x_18 * x_46 - 16.0 x_18 * x_48 + 2.5 x_19 * x_2 + 11.0 x_19 * x_7 + 8.0 x_19 * x_8 - 11.0 x_19 * x_18 + 6.0 x_19 * x_19 + 13.0 x_19 * x_20 - 21.0 x_19 * x_22 + 19.0 x_19 * x_23 - 1.5 x_19 * x_24 - 21.0 x_19 * x_25 + 17.5 x_19 * x_27 - 13.0 x_19 * x_29 - 24.5 x_19 * x_31 + 8.5 x_19 * x_32 - 0.5 x_19 * x_36 - 7.5 x_19 * x_38 + 3.0 x_19 * x_41 + 12.5 x_19 * x_42 - 17.0 x_19 * x_43 + 22.0 x_19 * x_45 - 20.0 x_19 * x_46 - 13.0 x_19 * x_47 + 7.0 x_19 * x_48 - 24.5 x_19 * x_50 - 8.5 x_20 * x_2 - 17.5 x_20 * x_5 - 22.0 x_20 * x_7 - 14.0 x_20 * x_8 - 6.0 x_20 * x_9 - 5.0 x_20 * x_11 + 15.5 x_20 * x_13 - 19.5 x_20 * x_17 + 8.0 x_20 * x_18 + 13.0 x_20 * x_19 - 17.0 x_20 * x_20 - 11.0 x_20 * x_23 + 13.5 x_20 * x_25 + 15.0 x_20 * x_26 + 0.5 x_20 * x_27 + 1.0 x_20 * x_31 + 7.5 x_20 * x_33 + 5.0 x_20 * x_35 + 3.0 x_20 * x_43 - 17.0 x_20 * x_47 + 5.5 x_21 * x_1 - 18.0 x_21 * x_2 + 18.0 x_21 * x_3 + 18.0 x_21 * x_4 + 17.5 x_21 * x_7 - 21.5 x_21 * x_9 + 23.0 x_21 * x_21 + 22.0 x_21 * x_23 - 10.5 x_21 * x_24 - 18.0 x_21 * x_26 - 1.0 x_21 * x_27 - 21.0 x_21 * x_29 + 17.0 x_21 * x_31 - 18.0 x_21 * x_34 - 5.0 x_21 * x_36 - 9.0 x_21 * x_37 - 14.5 x_21 * x_38 - 20.5 x_21 * x_39 - 17.0 x_21 * x_41 + 21.0 x_21 * x_42 - 21.0 x_21 * x_43 - 10.0 x_21 * x_44 + 23.5 x_21 * x_45 + 3.0 x_21 * x_48 + 23.0 x_21 * x_50 + 10.0 x_22 * x_1 + 0.5 x_22 * x_2 + 10.0 x_22 * x_4 - 21.5 x_22 * x_6 + 22.0 x_22 * x_10 + 18.5 x_22 * x_15 + 7.0 x_22 * x_16 + 21.0 x_22 * x_18 - 21.0 x_22 * x_19 - 23.5 x_22 * x_22 + 14.0 x_22 * x_23 + 23.5 x_22 * x_24 + 10.0 x_22 * x_27 - 1.5 x_22 * x_28 + 1.0 x_22 * x_29 + 0.5 x_22 * x_31 - 14.0 x_22 * x_32 - 23.0 x_22 * x_34 + 1.0 x_22 * x_35 + 22.5 x_22 * x_37 + 1.5 x_22 * x_38 - 16.5 x_22 * x_40 - 3.5 x_22 * x_44 + 9.5 x_22 * x_45 + 11.0 x_22 * x_46 - 8.5 x_22 * x_47 - 6.5 x_22 * x_48 + 7.0 x_22 * x_49 - 11.5 x_22 * x_50 + 10.5 x_23 * x_4 + 17.5 x_23 * x_6 - 14.5 x_23 * x_7 + 9.0 x_23 * x_8 - 13.5 x_23 * x_9 - 24.0 x_23 * x_10 + 14.5 x_23 * x_11 - 1.5 x_23 * x_12 + 6.5 x_23 * x_15 + 13.0 x_23 * x_16 - 5.5 x_23 * x_18 + 19.0 x_23 * x_19 - 11.0 x_23 * x_20 + 22.0 x_23 * x_21 + 14.0 x_23 * x_22 - 13.0 x_23 * x_23 - 9.0 x_23 * x_24 - 0.5 x_23 * x_25 + 14.5 x_23 * x_26 - 21.5 x_23 * x_29 + 7.0 x_23 * x_31 + 12.0 x_23 * x_35 - 16.0 x_23 * x_37 + 12.0 x_23 * x_38 - 5.0 x_23 * x_42 + 5.5 x_23 * x_45 - 5.5 x_23 * x_46 - 20.5 x_23 * x_48 - 4.5 x_24 * x_1 + 4.5 x_24 * x_2 + 21.5 x_24 * x_3 + 1.5 x_24 * x_6 - 17.0 x_24 * x_8 - 6.0 x_24 * x_9 - 4.5 x_24 * x_10 + 23.5 x_24 * x_11 - 24.0 x_24 * x_12 - 9.5 x_24 * x_13 - 7.0 x_24 * x_16 + 10.5 x_24 * x_17 - 19.0 x_24 * x_18 - 1.5 x_24 * x_19 - 10.5 x_24 * x_21 + 23.5 x_24 * x_22 - 9.0 x_24 * x_23 - 3.0 x_24 * x_25 - 20.5 x_24 * x_27 - 14.0 x_24 * x_28 + 5.0 x_24 * x_30 - 8.0 x_24 * x_31 + 6.0 x_24 * x_32 - 20.5 x_24 * x_35 + 19.5 x_24 * x_38 + 3.0 x_24 * x_39 + 11.5 x_24 * x_41 - 9.0 x_24 * x_44 - 12.5 x_24 * x_45 - 19.0 x_24 * x_46 + 5.5 x_24 * x_48 - 10.5 x_24 * x_50 + 10.0 x_25 * x_1 - 5.0 x_25 * x_2 - 15.0 x_25 * x_3 + 17.5 x_25 * x_4 + 22.5 x_25 * x_6 - 18.0 x_25 * x_7 + 9.5 x_25 * x_8 - 1.0 x_25 * x_9 - 6.5 x_25 * x_10 + 9.0 x_25 * x_11 - 20.5 x_25 * x_13 - 7.5 x_25 * x_14 + 9.0 x_25 * x_15 - 20.0 x_25 * x_16 + 9.0 x_25 * x_17 - 21.0 x_25 * x_19 + 13.5 x_25 * x_20 - 0.5 x_25 * x_23 - 3.0 x_25 * x_24 + 15.0 x_25 * x_25 + 8.0 x_25 * x_27 - 5.0 x_25 * x_28 - 1.0 x_25 * x_31 - 24.0 x_25 * x_36 + 20.0 x_25 * x_39 + 21.5 x_25 * x_40 + 12.0 x_25 * x_41 + 8.5 x_25 * x_42 - 15.5 x_25 * x_43 + 0.5 x_25 * x_46 - 8.5 x_25 * x_47 - 13.0 x_25 * x_48 + 4.5 x_25 * x_49 - 11.0 x_26 * x_1 - 2.0 x_26 * x_2 - 19.5 x_26 * x_6 - 5.0 x_26 * x_7 - 3.5 x_26 * x_9 + 14.0 x_26 * x_10 - 1.0 x_26 * x_11 + 9.5 x_26 * x_12 + 10.5 x_26 * x_13 + 6.0 x_26 * x_15 - 20.0 x_26 * x_17 + 15.0 x_26 * x_20 - 18.0 x_26 * x_21 + 14.5 x_26 * x_23 + 23.5 x_26 * x_28 + 21.0 x_26 * x_31 + 15.5 x_26 * x_32 + 7.5 x_26 * x_34 - 3.5 x_26 * x_35 - 0.5 x_26 * x_38 + 10.5 x_26 * x_39 - 11.5 x_26 * x_40 - 20.0 x_26 * x_42 - 12.0 x_26 * x_43 - 7.5 x_26 * x_44 - 15.5 x_26 * x_48 + 13.5 x_27 * x_1 + 1.0 x_27 * x_3 - 15.0 x_27 * x_4 - 22.5 x_27 * x_6 + 15.5 x_27 * x_7 + 10.0 x_27 * x_8 + 4.0 x_27 * x_9 + 4.0 x_27 * x_14 - 0.5 x_27 * x_17 + 17.5 x_27 * x_19 + 0.5 x_27 * x_20 - 1.0 x_27 * x_21 + 10.0 x_27 * x_22 - 20.5 x_27 * x_24 + 8.0 x_27 * x_25 - 14.5 x_27 * x_27 + 19.0 x_27 * x_28 - 24.0 x_27 * x_31 + 13.5 x_27 * x_32 + 10.5 x_27 * x_36 + 5.0 x_27 * x_37 - 9.0 x_27 * x_38 + 13.0 x_27 * x_39 + 13.5 x_27 * x_42 + 16.0 x_27 * x_45 - 13.0 x_27 * x_47 - 11.0 x_27 * x_48 - 6.5 x_28 * x_3 + 3.5 x_28 * x_4 + 3.0 x_28 * x_5 - 5.5 x_28 * x_7 - 19.5 x_28 * x_9 + 4.0 x_28 * x_10 + 7.0 x_28 * x_11 + 13.0 x_28 * x_12 + 5.5 x_28 * x_15 - 24.5 x_28 * x_16 - 0.5 x_28 * x_17 + 15.5 x_28 * x_18 - 1.5 x_28 * x_22 - 14.0 x_28 * x_24 - 5.0 x_28 * x_25 + 23.5 x_28 * x_26 + 19.0 x_28 * x_27 - 16.5 x_28 * x_28 + 10.5 x_28 * x_29 + 7.5 x_28 * x_31 + 13.5 x_28 * x_32 + 19.0 x_28 * x_36 + 11.0 x_28 * x_37 - 17.0 x_28 * x_38 + 1.0 x_28 * x_40 - 1.5 x_28 * x_41 + 7.0 x_28 * x_48 - 5.0 x_29 * x_1 + 19.5 x_29 * x_2 + 2.0 x_29 * x_3 + 14.5 x_29 * x_4 + 4.0 x_29 * x_6 - 15.0 x_29 * x_7 + 21.0 x_29 * x_9 + 11.5 x_29 * x_13 - 21.0 x_29 * x_14 - 7.0 x_29 * x_17 - 21.5 x_29 * x_18 - 13.0 x_29 * x_19 - 21.0 x_29 * x_21 + 1.0 x_29 * x_22 - 21.5 x_29 * x_23 + 10.5 x_29 * x_28 - 0.5 x_29 * x_30 - 5.0 x_29 * x_32 + 10.5 x_29 * x_37 + 19.5 x_29 * x_38 + 1.0 x_29 * x_39 - 4.5 x_29 * x_43 + 4.0 x_29 * x_45 + 10.5 x_29 * x_49 - 8.5 x_30 * x_2 + 12.0 x_30 * x_4 - 23.0 x_30 * x_8 + 17.5 x_30 * x_12 - 18.0 x_30 * x_13 - 9.0 x_30 * x_16 - 7.0 x_30 * x_17 + 5.0 x_30 * x_24 - 0.5 x_30 * x_29 + 2.0 x_30 * x_30 - 3.5 x_30 * x_32 - 24.0 x_30 * x_33 + 7.5 x_30 * x_34 + 23.5 x_30 * x_36 - 22.0 x_30 * x_39 - 16.5 x_30 * x_40 + 7.0 x_30 * x_41 - 19.5 x_30 * x_44 - 21.0 x_30 * x_45 + 23.0 x_30 * x_46 - 1.5 x_30 * x_49 + 3.0 x_31 * x_2 + 8.0 x_31 * x_3 - 15.5 x_31 * x_4 - 9.5 x_31 * x_5 - 10.5 x_31 * x_7 + 16.0 x_31 * x_11 + 20.5 x_31 * x_15 + 2.0 x_31 * x_17 - 24.5 x_31 * x_19 + 1.0 x_31 * x_20 + 17.0 x_31 * x_21 + 0.5 x_31 * x_22 + 7.0 x_31 * x_23 - 8.0 x_31 * x_24 - 1.0 x_31 * x_25 + 21.0 x_31 * x_26 - 24.0 x_31 * x_27 + 7.5 x_31 * x_28 + 14.0 x_31 * x_31 - 3.0 x_31 * x_32 + 24.5 x_31 * x_33 + 10.5 x_31 * x_34 + 13.0 x_31 * x_37 - 15.5 x_31 * x_38 - 21.5 x_31 * x_39 - 24.5 x_31 * x_41 - 17.0 x_31 * x_43 - 13.0 x_31 * x_46 + 16.5 x_31 * x_47 - 21.5 x_31 * x_48 - 19.5 x_31 * x_50 - 14.5 x_32 * x_5 - 14.5 x_32 * x_8 + 19.5 x_32 * x_10 + 16.5 x_32 * x_11 + 5.5 x_32 * x_12 + 21.0 x_32 * x_13 + 20.5 x_32 * x_15 - 4.5 x_32 * x_18 + 8.5 x_32 * x_19 - 14.0 x_32 * x_22 + 6.0 x_32 * x_24 + 15.5 x_32 * x_26 + 13.5 x_32 * x_27 + 13.5 x_32 * x_28 - 5.0 x_32 * x_29 - 3.5 x_32 * x_30 - 3.0 x_32 * x_31 - 21.0 x_32 * x_32 - 4.5 x_32 * x_34 - 12.0 x_32 * x_35 + 18.0 x_32 * x_36 - 18.0 x_32 * x_37 + 9.0 x_32 * x_38 + 21.0 x_32 * x_39 - 5.0 x_32 * x_41 + 23.0 x_32 * x_44 + 2.5 x_32 * x_48 - 2.0 x_32 * x_50 + 16.0 x_33 * x_1 - 10.0 x_33 * x_6 + 17.5 x_33 * x_7 - 14.0 x_33 * x_8 + 19.0 x_33 * x_10 + 16.5 x_33 * x_12 - 23.5 x_33 * x_13 - 15.5 x_33 * x_14 - 8.0 x_33 * x_15 - 21.5 x_33 * x_16 - 5.0 x_33 * x_17 + 7.5 x_33 * x_20 - 24.0 x_33 * x_30 + 24.5 x_33 * x_31 + 19.0 x_33 * x_33 + 4.0 x_33 * x_35 + 17.5 x_33 * x_36 + 5.5 x_33 * x_37 - 24.5 x_33 * x_38 - 9.0 x_33 * x_39 + 3.5 x_33 * x_41 - 16.0 x_33 * x_42 + 7.0 x_33 * x_45 - 2.5 x_33 * x_47 - 2.0 x_33 * x_48 - 5.0 x_33 * x_49 - 24.0 x_34 * x_1 - 6.0 x_34 * x_2 + 22.0 x_34 * x_4 + 24.5 x_34 * x_5 - 21.5 x_34 * x_6 - 20.0 x_34 * x_7 + 4.0 x_34 * x_8 + 24.5 x_34 * x_11 - 12.5 x_34 * x_13 - 13.5 x_34 * x_14 + 5.0 x_34 * x_16 - 15.5 x_34 * x_18 - 18.0 x_34 * x_21 - 23.0 x_34 * x_22 + 7.5 x_34 * x_26 + 7.5 x_34 * x_30 + 10.5 x_34 * x_31 - 4.5 x_34 * x_32 + 11.0 x_34 * x_34 + 14.5 x_34 * x_40 + 13.5 x_34 * x_41 + 7.0 x_34 * x_44 - 23.5 x_34 * x_46 - 16.0 x_34 * x_47 + 23.5 x_34 * x_48 + 15.0 x_35 * x_1 + 1.0 x_35 * x_5 - 9.0 x_35 * x_6 + 14.5 x_35 * x_13 - 22.0 x_35 * x_14 + 15.5 x_35 * x_16 + 5.0 x_35 * x_17 + 5.0 x_35 * x_20 + 1.0 x_35 * x_22 + 12.0 x_35 * x_23 - 20.5 x_35 * x_24 - 3.5 x_35 * x_26 - 12.0 x_35 * x_32 + 4.0 x_35 * x_33 - 19.5 x_35 * x_40 + 12.0 x_35 * x_41 - 4.5 x_35 * x_43 + 3.0 x_35 * x_44 - 13.5 x_35 * x_45 + 24.5 x_35 * x_47 - 5.5 x_35 * x_49 - 24.5 x_35 * x_50 + 3.5 x_36 * x_1 + 14.5 x_36 * x_2 - 19.5 x_36 * x_3 - 19.5 x_36 * x_4 - 1.0 x_36 * x_5 - 11.0 x_36 * x_7 + 22.0 x_36 * x_8 + 21.5 x_36 * x_12 + 20.0 x_36 * x_14 - 18.0 x_36 * x_16 - 0.5 x_36 * x_19 - 5.0 x_36 * x_21 - 24.0 x_36 * x_25 + 10.5 x_36 * x_27 + 19.0 x_36 * x_28 + 23.5 x_36 * x_30 + 18.0 x_36 * x_32 + 17.5 x_36 * x_33 - 2.0 x_36 * x_36 - 12.5 x_36 * x_37 + 12.0 x_36 * x_41 - 12.0 x_36 * x_42 - 23.5 x_36 * x_46 + 14.0 x_36 * x_48 - 13.5 x_37 * x_7 - 0.5 x_37 * x_8 + 1.5 x_37 * x_11 + 7.5 x_37 * x_13 - 6.0 x_37 * x_14 - 7.0 x_37 * x_15 - 22.0 x_37 * x_16 - 1.5 x_37 * x_17 - 18.0 x_37 * x_18 - 9.0 x_37 * x_21 + 22.5 x_37 * x_22 - 16.0 x_37 * x_23 + 5.0 x_37 * x_27 + 11.0 x_37 * x_28 + 10.5 x_37 * x_29 + 13.0 x_37 * x_31 - 18.0 x_37 * x_32 + 5.5 x_37 * x_33 - 12.5 x_37 * x_36 - 5.0 x_37 * x_37 + 5.0 x_37 * x_39 + 20.0 x_37 * x_40 + 4.5 x_37 * x_41 + 11.0 x_37 * x_46 - 22.0 x_37 * x_48 - 14.0 x_38 * x_5 + 24.5 x_38 * x_8 - 5.5 x_38 * x_11 + 19.0 x_38 * x_13 + 19.5 x_38 * x_18 - 7.5 x_38 * x_19 - 14.5 x_38 * x_21 + 1.5 x_38 * x_22 + 12.0 x_38 * x_23 + 19.5 x_38 * x_24 - 0.5 x_38 * x_26 - 9.0 x_38 * x_27 - 17.0 x_38 * x_28 + 19.5 x_38 * x_29 - 15.5 x_38 * x_31 + 9.0 x_38 * x_32 - 24.5 x_38 * x_33 + 23.5 x_38 * x_38 - 15.5 x_38 * x_39 + 22.5 x_38 * x_41 + 11.5 x_38 * x_42 + 12.5 x_38 * x_43 - 17.5 x_38 * x_45 - 4.0 x_38 * x_49 - 15.0 x_39 * x_1 + 14.0 x_39 * x_2 + 19.0 x_39 * x_4 + 2.0 x_39 * x_5 + 2.0 x_39 * x_6 - 24.5 x_39 * x_9 - 20.0 x_39 * x_10 + 13.0 x_39 * x_12 + 13.0 x_39 * x_16 - 0.5 x_39 * x_17 + 1.0 x_39 * x_18 - 20.5 x_39 * x_21 + 3.0 x_39 * x_24 + 20.0 x_39 * x_25 + 10.5 x_39 * x_26 + 13.0 x_39 * x_27 + 1.0 x_39 * x_29 - 22.0 x_39 * x_30 - 21.5 x_39 * x_31 + 21.0 x_39 * x_32 - 9.0 x_39 * x_33 + 5.0 x_39 * x_37 - 15.5 x_39 * x_38 + 11.5 x_39 * x_40 + 23.5 x_39 * x_42 + 23.5 x_39 * x_43 + 22.0 x_39 * x_44 + 11.5 x_39 * x_47 + 13.0 x_39 * x_48 - 10.5 x_39 * x_49 + 24.5 x_39 * x_50 + 10.5 x_40 * x_1 - 18.0 x_40 * x_2 + 12.0 x_40 * x_4 - 10.5 x_40 * x_5 + 2.5 x_40 * x_9 - 11.5 x_40 * x_10 - 2.0 x_40 * x_12 - 17.5 x_40 * x_15 - 10.5 x_40 * x_16 - 10.0 x_40 * x_17 - 16.5 x_40 * x_22 + 21.5 x_40 * x_25 - 11.5 x_40 * x_26 + 1.0 x_40 * x_28 - 16.5 x_40 * x_30 + 14.5 x_40 * x_34 - 19.5 x_40 * x_35 + 20.0 x_40 * x_37 + 11.5 x_40 * x_39 + 16.0 x_40 * x_40 - 10.5 x_40 * x_42 - 7.0 x_40 * x_47 - 2.5 x_41 * x_1 - 5.5 x_41 * x_3 - 3.0 x_41 * x_5 + 4.0 x_41 * x_7 - 6.5 x_41 * x_8 - 10.5 x_41 * x_12 - 20.5 x_41 * x_15 - 14.0 x_41 * x_17 + 3.0 x_41 * x_19 - 17.0 x_41 * x_21 + 11.5 x_41 * x_24 + 12.0 x_41 * x_25 - 1.5 x_41 * x_28 + 7.0 x_41 * x_30 - 24.5 x_41 * x_31 - 5.0 x_41 * x_32 + 3.5 x_41 * x_33 + 13.5 x_41 * x_34 + 12.0 x_41 * x_35 + 12.0 x_41 * x_36 + 4.5 x_41 * x_37 + 22.5 x_41 * x_38 + 20.0 x_41 * x_41 - 15.5 x_41 * x_42 - 9.5 x_41 * x_44 - 15.5 x_41 * x_49 + 18.5 x_42 * x_2 - 16.5 x_42 * x_3 - 14.5 x_42 * x_5 + 20.5 x_42 * x_6 - 15.5 x_42 * x_7 + 8.5 x_42 * x_8 - 22.0 x_42 * x_11 - 16.5 x_42 * x_14 + 11.0 x_42 * x_15 + 15.0 x_42 * x_16 + 12.5 x_42 * x_19 + 21.0 x_42 * x_21 - 5.0 x_42 * x_23 + 8.5 x_42 * x_25 - 20.0 x_42 * x_26 + 13.5 x_42 * x_27 - 16.0 x_42 * x_33 - 12.0 x_42 * x_36 + 11.5 x_42 * x_38 + 23.5 x_42 * x_39 - 10.5 x_42 * x_40 - 15.5 x_42 * x_41 + 13.0 x_42 * x_44 - 17.5 x_42 * x_47 - 4.5 x_42 * x_49 - 7.5 x_42 * x_50 + 15.0 x_43 * x_2 + 23.0 x_43 * x_3 + 1.0 x_43 * x_5 - 12.5 x_43 * x_6 - 15.5 x_43 * x_7 - 7.0 x_43 * x_8 + 6.5 x_43 * x_9 + 19.0 x_43 * x_10 + 4.5 x_43 * x_15 - 17.0 x_43 * x_19 + 3.0 x_43 * x_20 - 21.0 x_43 * x_21 - 15.5 x_43 * x_25 - 12.0 x_43 * x_26 - 4.5 x_43 * x_29 - 17.0 x_43 * x_31 - 4.5 x_43 * x_35 + 12.5 x_43 * x_38 + 23.5 x_43 * x_39 + 9.5 x_43 * x_43 + 19.5 x_43 * x_44 + 18.5 x_43 * x_48 + 21.0 x_44 * x_1 + 14.5 x_44 * x_3 + 3.0 x_44 * x_11 + 0.5 x_44 * x_14 - 14.5 x_44 * x_15 - 6.5 x_44 * x_17 + 13.0 x_44 * x_18 - 10.0 x_44 * x_21 - 3.5 x_44 * x_22 - 9.0 x_44 * x_24 - 7.5 x_44 * x_26 - 19.5 x_44 * x_30 + 23.0 x_44 * x_32 + 7.0 x_44 * x_34 + 3.0 x_44 * x_35 + 22.0 x_44 * x_39 - 9.5 x_44 * x_41 + 13.0 x_44 * x_42 + 19.5 x_44 * x_43 + 14.0 x_44 * x_44 + 7.0 x_44 * x_48 + 12.5 x_44 * x_50 + 24.0 x_45 * x_3 - 6.5 x_45 * x_7 - 9.0 x_45 * x_9 - 24.0 x_45 * x_13 + 3.5 x_45 * x_16 + 16.0 x_45 * x_17 + 22.0 x_45 * x_19 + 23.5 x_45 * x_21 + 9.5 x_45 * x_22 + 5.5 x_45 * x_23 - 12.5 x_45 * x_24 + 16.0 x_45 * x_27 + 4.0 x_45 * x_29 - 21.0 x_45 * x_30 + 7.0 x_45 * x_33 - 13.5 x_45 * x_35 - 17.5 x_45 * x_38 + 9.5 x_45 * x_45 - 8.5 x_45 * x_49 - 17.0 x_45 * x_50 + 3.5 x_46 * x_1 + 21.5 x_46 * x_2 - 7.5 x_46 * x_3 - 6.5 x_46 * x_5 - 1.0 x_46 * x_6 + 23.0 x_46 * x_10 - 1.0 x_46 * x_11 - 17.5 x_46 * x_12 + 6.5 x_46 * x_15 + 2.5 x_46 * x_16 + 19.5 x_46 * x_17 - 24.5 x_46 * x_18 - 20.0 x_46 * x_19 + 11.0 x_46 * x_22 - 5.5 x_46 * x_23 - 19.0 x_46 * x_24 + 0.5 x_46 * x_25 + 23.0 x_46 * x_30 - 13.0 x_46 * x_31 - 23.5 x_46 * x_34 - 23.5 x_46 * x_36 + 11.0 x_46 * x_37 - 16.5 x_46 * x_48 - 8.0 x_46 * x_50 - 10.0 x_47 * x_1 - 18.5 x_47 * x_4 - 9.0 x_47 * x_5 + 11.5 x_47 * x_6 - 20.0 x_47 * x_12 + 4.5 x_47 * x_14 - 6.0 x_47 * x_15 + 1.5 x_47 * x_16 - 13.0 x_47 * x_19 - 17.0 x_47 * x_20 - 8.5 x_47 * x_22 - 8.5 x_47 * x_25 - 13.0 x_47 * x_27 + 16.5 x_47 * x_31 - 2.5 x_47 * x_33 - 16.0 x_47 * x_34 + 24.5 x_47 * x_35 + 11.5 x_47 * x_39 - 7.0 x_47 * x_40 - 17.5 x_47 * x_42 - 5.0 x_47 * x_48 - 0.5 x_47 * x_50 - 3.0 x_48 * x_2 - 9.5 x_48 * x_3 + 9.5 x_48 * x_5 - 22.0 x_48 * x_6 + 8.5 x_48 * x_10 - 18.0 x_48 * x_12 - 22.5 x_48 * x_14 - 3.5 x_48 * x_17 - 16.0 x_48 * x_18 + 7.0 x_48 * x_19 + 3.0 x_48 * x_21 - 6.5 x_48 * x_22 - 20.5 x_48 * x_23 + 5.5 x_48 * x_24 - 13.0 x_48 * x_25 - 15.5 x_48 * x_26 - 11.0 x_48 * x_27 + 7.0 x_48 * x_28 - 21.5 x_48 * x_31 + 2.5 x_48 * x_32 - 2.0 x_48 * x_33 + 23.5 x_48 * x_34 + 14.0 x_48 * x_36 - 22.0 x_48 * x_37 + 13.0 x_48 * x_39 + 18.5 x_48 * x_43 + 7.0 x_48 * x_44 - 16.5 x_48 * x_46 - 5.0 x_48 * x_47 + 20.0 x_48 * x_48 + 17.5 x_48 * x_49 - 23.0 x_49 * x_1 + 14.0 x_49 * x_3 - 4.5 x_49 * x_4 + 22.0 x_49 * x_6 + 7.0 x_49 * x_7 + 20.5 x_49 * x_8 + 22.5 x_49 * x_9 - 3.5 x_49 * x_12 + 9.0 x_49 * x_13 - 2.5 x_49 * x_14 + 22.0 x_49 * x_16 + 7.0 x_49 * x_22 + 4.5 x_49 * x_25 + 10.5 x_49 * x_29 - 1.5 x_49 * x_30 - 5.0 x_49 * x_33 - 5.5 x_49 * x_35 - 4.0 x_49 * x_38 - 10.5 x_49 * x_39 - 15.5 x_49 * x_41 - 4.5 x_49 * x_42 - 8.5 x_49 * x_45 + 17.5 x_49 * x_48 - 17.5 x_49 * x_49 + 21.0 x_49 * x_50 - 20.5 x_50 * x_2 + 13.0 x_50 * x_3 - 16.5 x_50 * x_7 - 7.0 x_50 * x_8 - 19.0 x_50 * x_9 + 16.5 x_50 * x_11 + 16.0 x_50 * x_13 - 8.5 x_50 * x_15 + 6.5 x_50 * x_16 - 24.5 x_50 * x_19 + 23.0 x_50 * x_21 - 11.5 x_50 * x_22 - 10.5 x_50 * x_24 - 19.5 x_50 * x_31 - 2.0 x_50 * x_32 - 24.5 x_50 * x_35 + 24.5 x_50 * x_39 - 7.5 x_50 * x_42 + 12.5 x_50 * x_44 - 17.0 x_50 * x_45 - 8.0 x_50 * x_46 - 0.5 x_50 * x_47 + 21.0 x_50 * x_49 ] + 0.0 x_1 + 12.0 x_2 + 0.0 x_3 + 43.0 x_4 + 0.0 x_5 + 0.0 x_6 + 0.0 x_7 + 0.0 x_8 + 33.0 x_9 - 34.0 x_10 - 39.0 x_11 + 0.0 x_12 - 26.0 x_13 - 27.0 x_14 - 7.0 x_15 - 4.0 x_16 + 0.0 x_17 + 0.0 x_18 + 15.0 x_19 + 31.0 x_20 + 0.0 x_21 + 0.0 x_22 + 0.0 x_23 + 31.0 x_24 - 49.0 x_25 + 9.0 x_26 + 0.0 x_27 - 46.0 x_28 + 34.0 x_29 + 0.0 x_30 + 0.0 x_31 + 0.0 x_32 + 0.0 x_33 + 0.0 x_34 + 0.0 x_35 + 0.0 x_36 + 17.0 x_37 + 0.0 x_38 + 0.0 x_39 - 42.0 x_40 - 49.0 x_41 + 0.0 x_42 + 0.0 x_43 - 46.0 x_44 + 0.0 x_45 + 0.0 x_46 + 0.0 x_47 - 23.0 x_48 - 34.0 x_49 - 45.0 x_50

Subject To
 e2: [  x_1 * x_3 ] = 0.0
 e3: [  x_1 * x_6 ] = 0.0
 e4: [  x_1 * x_9 ] = 0.0
 e5: [  x_1 * x_13 ] = 0.0
 e6: [  x_1 * x_15 ] = 0.0
 e7: [  x_1 * x_27 ] = 0.0
 e8: [  x_1 * x_29 ] = 0.0
 e9: [  x_1 * x_36 ] = 0.0
 e10: [  x_1 * x_47 ] = 0.0
 e11: [  x_2 * x_14 ] = 0.0
 e12: [  x_2 * x_15 ] = 0.0
 e13: [  x_2 * x_17 ] = 0.0
 e14: [  x_2 * x_20 ] = 0.0
 e15: [  x_2 * x_22 ] = 0.0
 e16: [  x_3 * x_1 ] = 0.0
 e17: [  x_3 * x_9 ] = 0.0
 e18: [  x_3 * x_11 ] = 0.0
 e19: [  x_3 * x_12 ] = 0.0
 e20: [  x_3 * x_15 ] = 0.0
 e21: [  x_3 * x_17 ] = 0.0
 e22: [  x_3 * x_27 ] = 0.0
 e23: [  x_3 * x_29 ] = 0.0
 e24: [  x_3 * x_36 ] = 0.0
 e25: [  x_3 * x_41 ] = 0.0
 e26: [  x_3 * x_44 ] = 0.0
 e27: [  x_3 * x_45 ] = 0.0
 e28: [  x_3 * x_46 ] = 0.0
 e29: [  x_3 * x_50 ] = 0.0
 e30: [  x_4 * x_4 ] = 0.0
 e31: [  x_4 * x_5 ] = 0.0
 e32: [  x_4 * x_7 ] = 0.0
 e33: [  x_4 * x_9 ] = 0.0
 e34: [  x_4 * x_23 ] = 0.0
 e35: [  x_4 * x_27 ] = 0.0
 e36: [  x_4 * x_30 ] = 0.0
 e37: [  x_5 * x_2 ] = 0.0
 e38: [  x_5 * x_6 ] = 0.0
 e39: [  x_5 * x_7 ] = 0.0
 e40: [  x_5 * x_17 ] = 0.0
 e41: [  x_5 * x_39 ] = 0.0
 e42: [  x_5 * x_41 ] = 0.0
 e43: [  x_5 * x_42 ] = 0.0
 e44: [  x_6 * x_1 ] = 0.0
 e45: [  x_6 * x_5 ] = 0.0
 e46: [  x_6 * x_6 ] = 0.0
 e47: [  x_6 * x_8 ] = 0.0
 e48: [  x_6 * x_9 ] = 0.0
 e49: [  x_6 * x_10 ] = 0.0
 e50: [  x_6 * x_14 ] = 0.0
 e51: [  x_6 * x_23 ] = 0.0
 e52: [  x_6 * x_43 ] = 0.0
 e53: [  x_6 * x_47 ] = 0.0
 e54: [  x_7 * x_19 ] = 0.0
 e55: [  x_7 * x_21 ] = 0.0
 e56: [  x_7 * x_26 ] = 0.0
 e57: [  x_7 * x_29 ] = 0.0
 e58: [  x_7 * x_37 ] = 0.0
 e59: [  x_7 * x_41 ] = 0.0
 e60: [  x_7 * x_42 ] = 0.0
 e61: [  x_7 * x_45 ] = 0.0
 e62: [  x_7 * x_49 ] = 0.0
 e63: [  x_8 * x_1 ] = 0.0
 e64: [  x_8 * x_6 ] = 0.0
 e65: [  x_8 * x_9 ] = 0.0
 e66: [  x_8 * x_14 ] = 0.0
 e67: [  x_8 * x_25 ] = 0.0
 e68: [  x_8 * x_32 ] = 0.0
 e69: [  x_8 * x_36 ] = 0.0
 e70: [  x_8 * x_43 ] = 0.0
 e71: [  x_8 * x_49 ] = 0.0
 e72: [  x_9 * x_1 ] = 0.0
 e73: [  x_9 * x_3 ] = 0.0
 e74: [  x_9 * x_6 ] = 0.0
 e75: [  x_9 * x_8 ] = 0.0
 e76: [  x_9 * x_28 ] = 0.0
 e77: [  x_9 * x_40 ] = 0.0
 e78: [  x_9 * x_43 ] = 0.0
 e79: [  x_9 * x_49 ] = 0.0
 e80: [  x_9 * x_50 ] = 0.0
 e81: [  x_10 * x_15 ] = 0.0
 e82: [  x_10 * x_24 ] = 0.0
 e83: [  x_10 * x_25 ] = 0.0
 e84: [  x_10 * x_33 ] = 0.0
 e85: [  x_10 * x_43 ] = 0.0
 e86: [  x_10 * x_48 ] = 0.0
 e87: [  x_11 * x_3 ] = 0.0
 e88: [  x_11 * x_5 ] = 0.0
 e89: [  x_11 * x_6 ] = 0.0
 e90: [  x_11 * x_10 ] = 0.0
 e91: [  x_11 * x_20 ] = 0.0
 e92: [  x_11 * x_25 ] = 0.0
 e93: [  x_11 * x_32 ] = 0.0
 e94: [  x_11 * x_37 ] = 0.0
 e95: [  x_11 * x_38 ] = 0.0
 e96: [  x_12 * x_1 ] = 0.0
 e97: [  x_12 * x_3 ] = 0.0
 e98: [  x_12 * x_5 ] = 0.0
 e99: [  x_12 * x_6 ] = 0.0
 e100: [  x_12 * x_8 ] = 0.0
 e101: [  x_12 * x_9 ] = 0.0
 e102: [  x_12 * x_11 ] = 0.0
 e103: [  x_12 * x_12 ] = 0.0
 e104: [  x_12 * x_18 ] = 0.0
 e105: [  x_12 * x_28 ] = 0.0
 e106: [  x_12 * x_32 ] = 0.0
 e107: [  x_12 * x_33 ] = 0.0
 e108: [  x_12 * x_39 ] = 0.0
 e109: [  x_12 * x_47 ] = 0.0
 e110: [  x_13 * x_2 ] = 0.0
 e111: [  x_13 * x_3 ] = 0.0
 e112: [  x_13 * x_5 ] = 0.0
 e113: [  x_13 * x_8 ] = 0.0
 e114: [  x_13 * x_17 ] = 0.0
 e115: [  x_13 * x_18 ] = 0.0
 e116: [  x_13 * x_24 ] = 0.0
 e117: [  x_13 * x_26 ] = 0.0
 e118: [  x_13 * x_29 ] = 0.0
 e119: [  x_13 * x_34 ] = 0.0
 e120: [  x_13 * x_35 ] = 0.0
 e121: [  x_13 * x_38 ] = 0.0
 e122: [  x_13 * x_45 ] = 0.0
 e123: [  x_13 * x_49 ] = 0.0
 e124: [  x_14 * x_2 ] = 0.0
 e125: [  x_14 * x_6 ] = 0.0
 e126: [  x_14 * x_8 ] = 0.0
 e127: [  x_14 * x_25 ] = 0.0
 e128: [  x_14 * x_29 ] = 0.0
 e129: [  x_14 * x_33 ] = 0.0
 e130: [  x_14 * x_36 ] = 0.0
 e131: [  x_14 * x_37 ] = 0.0
 e132: [  x_14 * x_42 ] = 0.0
 e133: [  x_14 * x_44 ] = 0.0
 e134: [  x_14 * x_47 ] = 0.0
 e135: [  x_15 * x_8 ] = 0.0
 e136: [  x_15 * x_14 ] = 0.0
 e137: [  x_15 * x_22 ] = 0.0
 e138: [  x_15 * x_26 ] = 0.0
 e139: [  x_15 * x_32 ] = 0.0
 e140: [  x_15 * x_33 ] = 0.0
 e141: [  x_15 * x_37 ] = 0.0
 e142: [  x_15 * x_41 ] = 0.0
 e143: [  x_16 * x_3 ] = 0.0
 e144: [  x_16 * x_5 ] = 0.0
 e145: [  x_16 * x_28 ] = 0.0
 e146: [  x_16 * x_34 ] = 0.0
 e147: [  x_16 * x_37 ] = 0.0
 e148: [  x_16 * x_40 ] = 0.0
 e149: [  x_16 * x_42 ] = 0.0
 e150: [  x_16 * x_49 ] = 0.0
 e151: [  x_16 * x_50 ] = 0.0
 e152: [  x_17 * x_4 ] = 0.0
 e153: [  x_17 * x_5 ] = 0.0
 e154: [  x_17 * x_9 ] = 0.0
 e155: [  x_17 * x_24 ] = 0.0
 e156: [  x_17 * x_27 ] = 0.0
 e157: [  x_17 * x_29 ] = 0.0
 e158: [  x_17 * x_30 ] = 0.0
 e159: [  x_17 * x_33 ] = 0.0
 e160: [  x_17 * x_40 ] = 0.0
 e161: [  x_17 * x_44 ] = 0.0
 e162: [  x_18 * x_9 ] = 0.0
 e163: [  x_18 * x_12 ] = 0.0
 e164: [  x_18 * x_20 ] = 0.0
 e165: [  x_18 * x_22 ] = 0.0
 e166: [  x_18 * x_24 ] = 0.0
 e167: [  x_18 * x_44 ] = 0.0
 e168: [  x_19 * x_2 ] = 0.0
 e169: [  x_19 * x_19 ] = 0.0
 e170: [  x_19 * x_23 ] = 0.0
 e171: [  x_19 * x_25 ] = 0.0
 e172: [  x_19 * x_32 ] = 0.0
 e173: [  x_19 * x_41 ] = 0.0
 e174: [  x_19 * x_42 ] = 0.0
 e175: [  x_19 * x_43 ] = 0.0
 e176: [  x_19 * x_47 ] = 0.0
 e177: [  x_19 * x_48 ] = 0.0
 e178: [  x_20 * x_13 ] = 0.0
 e179: [  x_20 * x_18 ] = 0.0
 e180: [  x_20 * x_23 ] = 0.0
 e181: [  x_20 * x_27 ] = 0.0
 e182: [  x_21 * x_4 ] = 0.0
 e183: [  x_21 * x_21 ] = 0.0
 e184: [  x_21 * x_26 ] = 0.0
 e185: [  x_21 * x_27 ] = 0.0
 e186: [  x_21 * x_29 ] = 0.0
 e187: [  x_21 * x_36 ] = 0.0
 e188: [  x_21 * x_37 ] = 0.0
 e189: [  x_21 * x_38 ] = 0.0
 e190: [  x_21 * x_42 ] = 0.0
 e191: [  x_21 * x_43 ] = 0.0
 e192: [  x_21 * x_48 ] = 0.0
 e193: [  x_21 * x_50 ] = 0.0
 e194: [  x_22 * x_2 ] = 0.0
 e195: [  x_22 * x_4 ] = 0.0
 e196: [  x_22 * x_6 ] = 0.0
 e197: [  x_22 * x_15 ] = 0.0
 e198: [  x_22 * x_22 ] = 0.0
 e199: [  x_22 * x_24 ] = 0.0
 e200: [  x_22 * x_27 ] = 0.0
 e201: [  x_22 * x_28 ] = 0.0
 e202: [  x_22 * x_32 ] = 0.0
 e203: [  x_22 * x_37 ] = 0.0
 e204: [  x_22 * x_46 ] = 0.0
 e205: [  x_22 * x_48 ] = 0.0
 e206: [  x_22 * x_49 ] = 0.0
 e207: [  x_23 * x_6 ] = 0.0
 e208: [  x_23 * x_9 ] = 0.0
 e209: [  x_23 * x_12 ] = 0.0
 e210: [  x_23 * x_15 ] = 0.0
 e211: [  x_23 * x_16 ] = 0.0
 e212: [  x_23 * x_19 ] = 0.0
 e213: [  x_23 * x_20 ] = 0.0
 e214: [  x_23 * x_23 ] = 0.0
 e215: [  x_23 * x_24 ] = 0.0
 e216: [  x_23 * x_25 ] = 0.0
 e217: [  x_23 * x_26 ] = 0.0
 e218: [  x_23 * x_31 ] = 0.0
 e219: [  x_23 * x_42 ] = 0.0
 e220: [  x_24 * x_6 ] = 0.0
 e221: [  x_24 * x_8 ] = 0.0
 e222: [  x_24 * x_16 ] = 0.0
 e223: [  x_24 * x_18 ] = 0.0
 e224: [  x_24 * x_19 ] = 0.0
 e225: [  x_24 * x_23 ] = 0.0
 e226: [  x_24 * x_28 ] = 0.0
 e227: [  x_24 * x_32 ] = 0.0
 e228: [  x_24 * x_35 ] = 0.0
 e229: [  x_24 * x_48 ] = 0.0
 e230: [  x_24 * x_50 ] = 0.0
 e231: [  x_25 * x_1 ] = 0.0
 e232: [  x_25 * x_8 ] = 0.0
 e233: [  x_25 * x_9 ] = 0.0
 e234: [  x_25 * x_10 ] = 0.0
 e235: [  x_25 * x_13 ] = 0.0
 e236: [  x_25 * x_16 ] = 0.0
 e237: [  x_25 * x_19 ] = 0.0
 e238: [  x_25 * x_27 ] = 0.0
 e239: [  x_25 * x_31 ] = 0.0
 e240: [  x_25 * x_43 ] = 0.0
 e241: [  x_26 * x_6 ] = 0.0
 e242: [  x_26 * x_11 ] = 0.0
 e243: [  x_26 * x_13 ] = 0.0
 e244: [  x_26 * x_15 ] = 0.0
 e245: [  x_26 * x_17 ] = 0.0
 e246: [  x_26 * x_20 ] = 0.0
 e247: [  x_26 * x_39 ] = 0.0
 e248: [  x_26 * x_42 ] = 0.0
 e249: [  x_26 * x_43 ] = 0.0
 e250: [  x_26 * x_44 ] = 0.0
 e251: [  x_27 * x_1 ] = 0.0
 e252: [  x_27 * x_3 ] = 0.0
 e253: [  x_27 * x_4 ] = 0.0
 e254: [  x_27 * x_6 ] = 0.0
 e255: [  x_27 * x_8 ] = 0.0
 e256: [  x_27 * x_21 ] = 0.0
 e257: [  x_27 * x_22 ] = 0.0
 e258: [  x_27 * x_25 ] = 0.0
 e259: [  x_27 * x_27 ] = 0.0
 e260: [  x_27 * x_32 ] = 0.0
 e261: [  x_27 * x_45 ] = 0.0
 e262: [  x_28 * x_4 ] = 0.0
 e263: [  x_28 * x_5 ] = 0.0
 e264: [  x_28 * x_11 ] = 0.0
 e265: [  x_28 * x_15 ] = 0.0
 e266: [  x_28 * x_17 ] = 0.0
 e267: [  x_28 * x_22 ] = 0.0
 e268: [  x_28 * x_26 ] = 0.0
 e269: [  x_28 * x_31 ] = 0.0
 e270: [  x_28 * x_40 ] = 0.0
 e271: [  x_29 * x_2 ] = 0.0
 e272: [  x_29 * x_9 ] = 0.0
 e273: [  x_29 * x_14 ] = 0.0
 e274: [  x_29 * x_38 ] = 0.0
 e275: [  x_29 * x_39 ] = 0.0
 e276: [  x_29 * x_49 ] = 0.0
 e277: [  x_30 * x_4 ] = 0.0
 e278: [  x_30 * x_13 ] = 0.0
 e279: [  x_30 * x_24 ] = 0.0
 e280: [  x_30 * x_30 ] = 0.0
 e281: [  x_30 * x_44 ] = 0.0
 e282: [  x_31 * x_2 ] = 0.0
 e283: [  x_31 * x_5 ] = 0.0
 e284: [  x_31 * x_11 ] = 0.0
 e285: [  x_31 * x_15 ] = 0.0
 e286: [  x_31 * x_19 ] = 0.0
 e287: [  x_31 * x_31 ] = 0.0
 e288: [  x_31 * x_33 ] = 0.0
 e289: [  x_31 * x_37 ] = 0.0
 e290: [  x_31 * x_47 ] = 0.0
 e291: [  x_31 * x_50 ] = 0.0
 e292: [  x_32 * x_11 ] = 0.0
 e293: [  x_32 * x_15 ] = 0.0
 e294: [  x_32 * x_22 ] = 0.0
 e295: [  x_32 * x_27 ] = 0.0
 e296: [  x_32 * x_29 ] = 0.0
 e297: [  x_32 * x_30 ] = 0.0
 e298: [  x_32 * x_32 ] = 0.0
 e299: [  x_32 * x_34 ] = 0.0
 e300: [  x_32 * x_35 ] = 0.0
 e301: [  x_32 * x_41 ] = 0.0
 e302: [  x_33 * x_6 ] = 0.0
 e303: [  x_33 * x_7 ] = 0.0
 e304: [  x_33 * x_12 ] = 0.0
 e305: [  x_33 * x_16 ] = 0.0
 e306: [  x_33 * x_17 ] = 0.0
 e307: [  x_33 * x_36 ] = 0.0
 e308: [  x_33 * x_37 ] = 0.0
 e309: [  x_33 * x_41 ] = 0.0
 e310: [  x_33 * x_48 ] = 0.0
 e311: [  x_33 * x_49 ] = 0.0
 e312: [  x_34 * x_6 ] = 0.0
 e313: [  x_34 * x_11 ] = 0.0
 e314: [  x_34 * x_16 ] = 0.0
 e315: [  x_34 * x_18 ] = 0.0
 e316: [  x_34 * x_40 ] = 0.0
 e317: [  x_34 * x_41 ] = 0.0
 e318: [  x_34 * x_47 ] = 0.0
 e319: [  x_35 * x_13 ] = 0.0
 e320: [  x_35 * x_14 ] = 0.0
 e321: [  x_35 * x_17 ] = 0.0
 e322: [  x_35 * x_22 ] = 0.0
 e323: [  x_35 * x_23 ] = 0.0
 e324: [  x_35 * x_24 ] = 0.0
 e325: [  x_35 * x_43 ] = 0.0
 e326: [  x_35 * x_47 ] = 0.0
 e327: [  x_35 * x_49 ] = 0.0
 e328: [  x_36 * x_12 ] = 0.0
 e329: [  x_36 * x_21 ] = 0.0
 e330: [  x_36 * x_25 ] = 0.0
 e331: [  x_36 * x_27 ] = 0.0
 e332: [  x_36 * x_30 ] = 0.0
 e333: [  x_36 * x_32 ] = 0.0
 e334: [  x_36 * x_42 ] = 0.0
 e335: [  x_37 * x_21 ] = 0.0
 e336: [  x_37 * x_22 ] = 0.0
 e337: [  x_37 * x_27 ] = 0.0
 e338: [  x_37 * x_28 ] = 0.0
 e339: [  x_37 * x_31 ] = 0.0
 e340: [  x_37 * x_32 ] = 0.0
 e341: [  x_37 * x_37 ] = 0.0
 e342: [  x_37 * x_41 ] = 0.0
 e343: [  x_38 * x_5 ] = 0.0
 e344: [  x_38 * x_11 ] = 0.0
 e345: [  x_38 * x_13 ] = 0.0
 e346: [  x_38 * x_26 ] = 0.0
 e347: [  x_38 * x_29 ] = 0.0
 e348: [  x_38 * x_38 ] = 0.0
 e349: [  x_38 * x_42 ] = 0.0
 e350: [  x_38 * x_45 ] = 0.0
 e351: [  x_38 * x_49 ] = 0.0
 e352: [  x_39 * x_9 ] = 0.0
 e353: [  x_39 * x_12 ] = 0.0
 e354: [  x_39 * x_17 ] = 0.0
 e355: [  x_39 * x_25 ] = 0.0
 e356: [  x_39 * x_27 ] = 0.0
 e357: [  x_39 * x_31 ] = 0.0
 e358: [  x_39 * x_37 ] = 0.0
 e359: [  x_39 * x_40 ] = 0.0
 e360: [  x_39 * x_43 ] = 0.0
 e361: [  x_39 * x_44 ] = 0.0
 e362: [  x_39 * x_49 ] = 0.0
 e363: [  x_40 * x_4 ] = 0.0
 e364: [  x_40 * x_9 ] = 0.0
 e365: [  x_40 * x_12 ] = 0.0
 e366: [  x_40 * x_15 ] = 0.0
 e367: [  x_40 * x_17 ] = 0.0
 e368: [  x_40 * x_25 ] = 0.0
 e369: [  x_40 * x_34 ] = 0.0
 e370: [  x_40 * x_40 ] = 0.0
 e371: [  x_40 * x_42 ] = 0.0
 e372: [  x_41 * x_1 ] = 0.0
 e373: [  x_41 * x_8 ] = 0.0
 e374: [  x_41 * x_12 ] = 0.0
 e375: [  x_41 * x_15 ] = 0.0
 e376: [  x_41 * x_19 ] = 0.0
 e377: [  x_41 * x_25 ] = 0.0
 e378: [  x_41 * x_31 ] = 0.0
 e379: [  x_41 * x_34 ] = 0.0
 e380: [  x_41 * x_37 ] = 0.0
 e381: [  x_41 * x_49 ] = 0.0
 e382: [  x_42 * x_6 ] = 0.0
 e383: [  x_42 * x_7 ] = 0.0
 e384: [  x_42 * x_8 ] = 0.0
 e385: [  x_42 * x_11 ] = 0.0
 e386: [  x_42 * x_15 ] = 0.0
 e387: [  x_42 * x_16 ] = 0.0
 e388: [  x_42 * x_19 ] = 0.0
 e389: [  x_42 * x_27 ] = 0.0
 e390: [  x_42 * x_38 ] = 0.0
 e391: [  x_42 * x_39 ] = 0.0
 e392: [  x_42 * x_41 ] = 0.0
 e393: [  x_42 * x_44 ] = 0.0
 e394: [  x_43 * x_3 ] = 0.0
 e395: [  x_43 * x_19 ] = 0.0
 e396: [  x_43 * x_38 ] = 0.0
 e397: [  x_43 * x_43 ] = 0.0
 e398: [  x_43 * x_48 ] = 0.0
 e399: [  x_44 * x_11 ] = 0.0
 e400: [  x_44 * x_21 ] = 0.0
 e401: [  x_44 * x_24 ] = 0.0
 e402: [  x_44 * x_26 ] = 0.0
 e403: [  x_44 * x_30 ] = 0.0
 e404: [  x_44 * x_41 ] = 0.0
 e405: [  x_44 * x_50 ] = 0.0
 e406: [  x_45 * x_13 ] = 0.0
 e407: [  x_45 * x_17 ] = 0.0
 e408: [  x_45 * x_21 ] = 0.0
 e409: [  x_45 * x_24 ] = 0.0
 e410: [  x_45 * x_45 ] = 0.0
 e411: [  x_46 * x_3 ] = 0.0
 e412: [  x_46 * x_6 ] = 0.0
 e413: [  x_46 * x_10 ] = 0.0
 e414: [  x_46 * x_11 ] = 0.0
 e415: [  x_46 * x_12 ] = 0.0
 e416: [  x_46 * x_18 ] = 0.0
 e417: [  x_46 * x_34 ] = 0.0
 e418: [  x_46 * x_36 ] = 0.0
 e419: [  x_46 * x_48 ] = 0.0
 e420: [  x_47 * x_5 ] = 0.0
 e421: [  x_47 * x_6 ] = 0.0
 e422: [  x_47 * x_12 ] = 0.0
 e423: [  x_47 * x_19 ] = 0.0
 e424: [  x_47 * x_20 ] = 0.0
 e425: [  x_47 * x_39 ] = 0.0
 e426: [  x_48 * x_2 ] = 0.0
 e427: [  x_48 * x_5 ] = 0.0
 e428: [  x_48 * x_12 ] = 0.0
 e429: [  x_48 * x_14 ] = 0.0
 e430: [  x_48 * x_19 ] = 0.0
 e431: [  x_48 * x_22 ] = 0.0
 e432: [  x_48 * x_31 ] = 0.0
 e433: [  x_48 * x_32 ] = 0.0
 e434: [  x_48 * x_37 ] = 0.0
 e435: [  x_48 * x_43 ] = 0.0
 e436: [  x_48 * x_49 ] = 0.0
 e437: [  x_49 * x_7 ] = 0.0
 e438: [  x_49 * x_8 ] = 0.0
 e439: [  x_49 * x_9 ] = 0.0
 e440: [  x_49 * x_12 ] = 0.0
 e441: [  x_49 * x_16 ] = 0.0
 e442: [  x_49 * x_29 ] = 0.0
 e443: [  x_49 * x_30 ] = 0.0
 e444: [  x_49 * x_33 ] = 0.0
 e445: [  x_49 * x_35 ] = 0.0
 e446: [  x_49 * x_38 ] = 0.0
 e447: [  x_49 * x_39 ] = 0.0
 e448: [  x_49 * x_41 ] = 0.0
 e449: [  x_49 * x_49 ] = 0.0
 e450: [  x_50 * x_8 ] = 0.0
 e451: [  x_50 * x_11 ] = 0.0
 e452: [  x_50 * x_13 ] = 0.0
 e453: [  x_50 * x_16 ] = 0.0
 e454: [  x_50 * x_19 ] = 0.0
 e455: [  x_50 * x_22 ] = 0.0
 e456: [  x_50 * x_24 ] = 0.0
 e457: [  x_50 * x_31 ] = 0.0
 e458: [  x_50 * x_32 ] = 0.0
 e459: [  x_50 * x_42 ] = 0.0
 e460: [  x_50 * x_47 ] = 0.0

Bounds
 x_1 <= 1.0
 x_2 <= 1.0
 x_3 <= 1.0
 x_4 <= 1.0
 x_5 <= 1.0
 x_6 <= 1.0
 x_7 <= 1.0
 x_8 <= 1.0
 x_9 <= 1.0
 x_10 <= 1.0
 x_11 <= 1.0
 x_12 <= 1.0
 x_13 <= 1.0
 x_14 <= 1.0
 x_15 <= 1.0
 x_16 <= 1.0
 x_17 <= 1.0
 x_18 <= 1.0
 x_19 <= 1.0
 x_20 <= 1.0
 x_21 <= 1.0
 x_22 <= 1.0
 x_23 <= 1.0
 x_24 <= 1.0
 x_25 <= 1.0
 x_26 <= 1.0
 x_27 <= 1.0
 x_28 <= 1.0
 x_29 <= 1.0
 x_30 <= 1.0
 x_31 <= 1.0
 x_32 <= 1.0
 x_33 <= 1.0
 x_34 <= 1.0
 x_35 <= 1.0
 x_36 <= 1.0
 x_37 <= 1.0
 x_38 <= 1.0
 x_39 <= 1.0
 x_40 <= 1.0
 x_41 <= 1.0
 x_42 <= 1.0
 x_43 <= 1.0
 x_44 <= 1.0
 x_45 <= 1.0
 x_46 <= 1.0
 x_47 <= 1.0
 x_48 <= 1.0
 x_49 <= 1.0
 x_50 <= 1.0

End